488,672
532,700
281,202
453,332
482,342
531,406
611,503
923,582
892,697
898,833
436,887
532,700
436,887
737,761
622,415
718,292
482,342
334,229
293,124
681,16
616,-8
888,438
1041,406
918,443
858,434
677,435
891,406
875,547
826,511
874,672
723,672
923,582
918,443
937,323
994,305
937,323
947,213
820,-21
554,279
531,406
858,434
795,369
681,16
765,-127
892,697
874,672
602,909
611,503
622,415
554,279
469,194
616,-8
681,-134
765,-127
